p edge 1189 1169
e 1 2
e 1 3
e 1 4
e 1 5
e 1 6
e 1 7
e 1 8
e 1 9
e 1 10
e 1 11
e 1 12
e 1 13
e 1 14
e 1 15
e 1 16
e 1 17
e 1 18
e 1 19
e 1 20
e 1 21
e 1 22
e 1 23
e 1 24
e 1 25
e 1 26
e 1 27
e 1 28
e 1 29
e 1 30
e 1 31
e 1 32
e 1 33
e 1 34
e 1 35
e 1 36
e 1 37
e 1 38
e 1 39
e 1 40
e 1 41
e 1 42
e 1 43
e 1 44
e 1 45
e 1 46
e 1 47
e 1 48
e 1 49
e 1 50
e 1 51
e 1 52
e 1 53
e 1 54
e 1 55
e 1 56
e 1 57
e 1 58
e 1 59
e 1 60
e 1 61
e 1 62
e 1 63
e 1 64
e 1 65
e 1 66
e 1 67
e 1 68
e 1 69
e 1 70
e 1 71
e 1 72
e 1 73
e 1 74
e 1 75
e 1 76
e 1 77
e 1 78
e 1 79
e 1 80
e 1 81
e 1 82
e 1 83
e 1 84
e 1 85
e 1 86
e 1 87
e 1 88
e 1 89
e 1 90
e 1 91
e 1 92
e 1 93
e 1 94
e 1 95
e 1 96
e 1 97
e 1 98
e 1 99
e 100 101
e 100 102
e 100 103
e 100 104
e 100 105
e 100 106
e 100 107
e 100 108
e 100 109
e 100 110
e 100 111
e 100 112
e 100 113
e 100 114
e 100 115
e 100 116
e 100 117
e 100 118
e 100 119
e 100 120
e 100 121
e 100 122
e 100 123
e 100 124
e 100 125
e 100 126
e 100 127
e 100 128
e 100 129
e 100 130
e 100 131
e 100 132
e 100 133
e 100 134
e 100 135
e 100 136
e 100 137
e 100 138
e 100 139
e 100 140
e 100 141
e 100 142
e 100 143
e 100 144
e 100 145
e 100 146
e 100 147
e 100 148
e 100 149
e 100 150
e 100 151
e 100 152
e 100 153
e 100 154
e 100 155
e 100 156
e 157 158
e 157 159
e 157 160
e 157 161
e 157 162
e 157 163
e 157 164
e 157 165
e 157 166
e 157 167
e 157 168
e 157 169
e 157 170
e 157 171
e 157 172
e 157 173
e 157 174
e 157 175
e 157 176
e 157 177
e 157 178
e 157 179
e 157 180
e 157 181
e 157 182
e 157 183
e 157 184
e 157 185
e 157 186
e 157 187
e 157 188
e 157 189
e 157 190
e 157 191
e 157 192
e 157 193
e 157 194
e 157 195
e 157 196
e 157 197
e 157 198
e 157 199
e 157 200
e 157 201
e 157 202
e 157 203
e 157 204
e 157 205
e 157 206
e 157 207
e 157 208
e 157 209
e 157 210
e 157 211
e 157 212
e 157 213
e 214 215
e 214 216
e 214 217
e 214 218
e 214 219
e 214 220
e 214 221
e 214 222
e 214 223
e 214 224
e 214 225
e 214 226
e 214 227
e 214 228
e 214 229
e 214 230
e 214 231
e 214 232
e 214 233
e 214 234
e 214 235
e 214 236
e 214 237
e 214 238
e 214 239
e 214 240
e 214 241
e 214 242
e 214 243
e 214 244
e 214 245
e 214 246
e 214 247
e 214 248
e 214 249
e 214 250
e 214 251
e 214 252
e 214 253
e 214 254
e 214 255
e 214 256
e 214 257
e 214 258
e 214 259
e 214 260
e 214 261
e 214 262
e 214 263
e 214 264
e 214 265
e 214 266
e 214 267
e 214 268
e 214 269
e 214 270
e 214 271
e 214 272
e 214 273
e 214 274
e 214 275
e 214 276
e 214 277
e 214 278
e 214 279
e 214 280
e 214 281
e 214 282
e 214 283
e 214 284
e 214 285
e 214 286
e 214 287
e 214 288
e 214 289
e 214 290
e 214 291
e 214 292
e 214 293
e 214 294
e 214 295
e 214 296
e 214 297
e 214 298
e 214 299
e 214 300
e 301 302
e 301 303
e 301 304
e 301 305
e 301 306
e 301 307
e 301 308
e 301 309
e 301 310
e 301 311
e 301 312
e 301 313
e 301 314
e 301 315
e 316 317
e 316 318
e 316 319
e 316 320
e 316 321
e 316 322
e 316 323
e 316 324
e 316 325
e 316 326
e 316 327
e 316 328
e 316 329
e 316 330
e 316 331
e 316 332
e 316 333
e 334 335
e 334 336
e 334 337
e 334 338
e 334 339
e 334 340
e 334 341
e 334 342
e 334 343
e 334 344
e 334 345
e 334 346
e 334 347
e 334 348
e 334 349
e 334 350
e 334 351
e 334 352
e 334 353
e 334 354
e 334 355
e 334 356
e 334 357
e 334 358
e 334 359
e 334 360
e 334 361
e 334 362
e 334 363
e 334 364
e 334 365
e 334 366
e 334 367
e 334 368
e 334 369
e 334 370
e 334 371
e 334 372
e 334 373
e 334 374
e 334 375
e 334 376
e 334 377
e 334 378
e 334 379
e 334 380
e 334 381
e 334 382
e 334 383
e 334 384
e 334 385
e 334 386
e 334 387
e 334 388
e 334 389
e 334 390
e 334 391
e 334 392
e 334 393
e 334 394
e 334 395
e 334 396
e 334 397
e 334 398
e 334 399
e 334 400
e 334 401
e 334 402
e 334 403
e 334 404
e 334 405
e 334 406
e 334 407
e 334 408
e 334 409
e 334 410
e 334 411
e 334 412
e 334 413
e 334 414
e 334 415
e 416 417
e 416 418
e 416 419
e 416 420
e 416 421
e 416 422
e 416 423
e 416 424
e 416 425
e 416 426
e 416 427
e 416 428
e 416 429
e 416 430
e 416 431
e 416 432
e 416 433
e 416 434
e 416 435
e 416 436
e 416 437
e 416 438
e 416 439
e 416 440
e 416 441
e 416 442
e 416 443
e 416 444
e 416 445
e 416 446
e 416 447
e 416 448
e 416 449
e 416 450
e 416 451
e 416 452
e 416 453
e 454 455
e 454 456
e 454 457
e 454 458
e 454 459
e 454 460
e 454 461
e 454 462
e 454 463
e 454 464
e 454 465
e 454 466
e 454 467
e 454 468
e 454 469
e 454 470
e 454 471
e 454 472
e 454 473
e 454 474
e 454 475
e 454 476
e 454 477
e 454 478
e 454 479
e 454 480
e 454 481
e 454 482
e 454 483
e 454 484
e 454 485
e 454 486
e 454 487
e 454 488
e 454 489
e 454 490
e 454 491
e 454 492
e 454 493
e 454 494
e 454 495
e 454 496
e 454 497
e 454 498
e 454 499
e 454 500
e 454 501
e 454 502
e 454 503
e 454 504
e 454 505
e 454 506
e 454 507
e 454 508
e 454 509
e 454 510
e 454 511
e 454 512
e 454 513
e 454 514
e 454 515
e 454 516
e 454 517
e 454 518
e 454 519
e 454 520
e 454 521
e 454 522
e 523 524
e 523 525
e 523 526
e 523 527
e 523 528
e 523 529
e 523 530
e 523 531
e 523 532
e 523 533
e 523 534
e 523 535
e 523 536
e 523 537
e 523 538
e 523 539
e 523 540
e 523 541
e 523 542
e 523 543
e 523 544
e 523 545
e 523 546
e 523 547
e 523 548
e 523 549
e 523 550
e 523 551
e 523 552
e 523 553
e 523 554
e 523 555
e 523 556
e 523 557
e 523 558
e 523 559
e 523 560
e 523 561
e 523 562
e 523 563
e 523 564
e 523 565
e 523 566
e 523 567
e 523 568
e 523 569
e 523 570
e 523 571
e 523 572
e 523 573
e 523 574
e 523 575
e 576 577
e 576 578
e 576 579
e 576 580
e 576 581
e 576 582
e 576 583
e 576 584
e 576 585
e 576 586
e 576 587
e 576 588
e 576 589
e 576 590
e 576 591
e 576 592
e 576 593
e 576 594
e 576 595
e 576 596
e 576 597
e 576 598
e 576 599
e 576 600
e 576 601
e 576 602
e 576 603
e 576 604
e 576 605
e 576 606
e 576 607
e 576 608
e 576 609
e 576 610
e 576 611
e 576 612
e 576 613
e 576 614
e 576 615
e 576 616
e 576 617
e 576 618
e 576 619
e 576 620
e 576 621
e 576 622
e 576 623
e 576 624
e 576 625
e 576 626
e 576 627
e 576 628
e 576 629
e 576 630
e 576 631
e 576 632
e 576 633
e 576 634
e 576 635
e 576 636
e 576 637
e 576 638
e 576 639
e 576 640
e 576 641
e 576 642
e 643 644
e 643 645
e 643 646
e 643 647
e 643 648
e 643 649
e 643 650
e 643 651
e 643 652
e 643 653
e 643 654
e 643 655
e 643 656
e 643 657
e 643 658
e 643 659
e 643 660
e 643 661
e 643 662
e 643 663
e 643 664
e 643 665
e 643 666
e 643 667
e 643 668
e 643 669
e 643 670
e 643 671
e 643 672
e 643 673
e 643 674
e 643 675
e 643 676
e 643 677
e 678 679
e 678 680
e 678 681
e 678 682
e 678 683
e 678 684
e 678 685
e 678 686
e 678 687
e 678 688
e 678 689
e 678 690
e 678 691
e 678 692
e 678 693
e 678 694
e 678 695
e 678 696
e 678 697
e 678 698
e 678 699
e 678 700
e 678 701
e 678 702
e 678 703
e 678 704
e 678 705
e 678 706
e 678 707
e 678 708
e 678 709
e 678 710
e 678 711
e 678 712
e 678 713
e 678 714
e 678 715
e 678 716
e 678 717
e 678 718
e 678 719
e 678 720
e 678 721
e 678 722
e 678 723
e 678 724
e 678 725
e 678 726
e 678 727
e 678 728
e 678 729
e 678 730
e 678 731
e 678 732
e 678 733
e 678 734
e 678 735
e 678 736
e 678 737
e 678 738
e 678 739
e 678 740
e 678 741
e 678 742
e 678 743
e 678 744
e 678 745
e 678 746
e 678 747
e 678 748
e 678 749
e 678 750
e 678 751
e 678 752
e 678 753
e 678 754
e 678 755
e 678 756
e 678 757
e 678 758
e 678 759
e 678 760
e 678 761
e 678 762
e 678 763
e 678 764
e 678 765
e 678 766
e 678 767
e 678 768
e 678 769
e 770 771
e 770 772
e 770 773
e 770 774
e 770 775
e 770 776
e 770 777
e 770 778
e 770 779
e 770 780
e 770 781
e 770 782
e 770 783
e 770 784
e 770 785
e 770 786
e 770 787
e 770 788
e 770 789
e 770 790
e 770 791
e 770 792
e 770 793
e 770 794
e 770 795
e 770 796
e 770 797
e 770 798
e 770 799
e 770 800
e 770 801
e 770 802
e 770 803
e 804 805
e 804 806
e 804 807
e 804 808
e 804 809
e 804 810
e 804 811
e 804 812
e 804 813
e 804 814
e 804 815
e 804 816
e 804 817
e 804 818
e 804 819
e 804 820
e 804 821
e 804 822
e 804 823
e 804 824
e 804 825
e 804 826
e 804 827
e 804 828
e 804 829
e 804 830
e 804 831
e 804 832
e 804 833
e 804 834
e 804 835
e 804 836
e 804 837
e 804 838
e 804 839
e 804 840
e 804 841
e 804 842
e 804 843
e 804 844
e 804 845
e 804 846
e 804 847
e 804 848
e 804 849
e 804 850
e 804 851
e 804 852
e 804 853
e 804 854
e 804 855
e 804 856
e 804 857
e 804 858
e 804 859
e 804 860
e 804 861
e 804 862
e 804 863
e 804 864
e 804 865
e 804 866
e 804 867
e 804 868
e 804 869
e 804 870
e 804 871
e 804 872
e 804 873
e 804 874
e 804 875
e 804 876
e 804 877
e 804 878
e 804 879
e 804 880
e 804 881
e 804 882
e 804 883
e 804 884
e 804 885
e 804 886
e 804 887
e 804 888
e 804 889
e 804 890
e 804 891
e 804 892
e 804 893
e 804 894
e 895 896
e 895 897
e 895 898
e 895 899
e 895 900
e 895 901
e 895 902
e 895 903
e 895 904
e 895 905
e 895 906
e 895 907
e 895 908
e 895 909
e 895 910
e 895 911
e 895 912
e 895 913
e 895 914
e 895 915
e 895 916
e 895 917
e 895 918
e 895 919
e 895 920
e 895 921
e 895 922
e 895 923
e 895 924
e 895 925
e 895 926
e 895 927
e 895 928
e 895 929
e 895 930
e 895 931
e 895 932
e 895 933
e 895 934
e 895 935
e 895 936
e 895 937
e 895 938
e 895 939
e 895 940
e 895 941
e 895 942
e 895 943
e 895 944
e 895 945
e 895 946
e 895 947
e 895 948
e 895 949
e 895 950
e 895 951
e 895 952
e 895 953
e 895 954
e 895 955
e 895 956
e 895 957
e 895 958
e 895 959
e 895 960
e 895 961
e 895 962
e 895 963
e 895 964
e 895 965
e 895 966
e 895 967
e 895 968
e 895 969
e 895 970
e 895 971
e 895 972
e 895 973
e 974 975
e 974 976
e 974 977
e 974 978
e 974 979
e 974 980
e 974 981
e 974 982
e 974 983
e 974 984
e 974 985
e 974 986
e 974 987
e 974 988
e 974 989
e 974 990
e 974 991
e 974 992
e 974 993
e 974 994
e 974 995
e 974 996
e 974 997
e 974 998
e 974 999
e 974 1000
e 974 1001
e 974 1002
e 974 1003
e 974 1004
e 974 1005
e 974 1006
e 974 1007
e 974 1008
e 974 1009
e 974 1010
e 974 1011
e 974 1012
e 974 1013
e 974 1014
e 974 1015
e 974 1016
e 974 1017
e 974 1018
e 974 1019
e 974 1020
e 974 1021
e 974 1022
e 974 1023
e 974 1024
e 974 1025
e 974 1026
e 974 1027
e 1028 1029
e 1028 1030
e 1028 1031
e 1028 1032
e 1028 1033
e 1028 1034
e 1028 1035
e 1028 1036
e 1028 1037
e 1028 1038
e 1028 1039
e 1028 1040
e 1028 1041
e 1028 1042
e 1028 1043
e 1028 1044
e 1028 1045
e 1028 1046
e 1028 1047
e 1028 1048
e 1028 1049
e 1028 1050
e 1028 1051
e 1028 1052
e 1028 1053
e 1028 1054
e 1028 1055
e 1028 1056
e 1028 1057
e 1028 1058
e 1028 1059
e 1028 1060
e 1028 1061
e 1028 1062
e 1028 1063
e 1028 1064
e 1028 1065
e 1028 1066
e 1028 1067
e 1028 1068
e 1028 1069
e 1028 1070
e 1028 1071
e 1028 1072
e 1028 1073
e 1028 1074
e 1028 1075
e 1028 1076
e 1028 1077
e 1028 1078
e 1079 1080
e 1079 1081
e 1079 1082
e 1079 1083
e 1079 1084
e 1079 1085
e 1079 1086
e 1079 1087
e 1079 1088
e 1079 1089
e 1079 1090
e 1079 1091
e 1079 1092
e 1079 1093
e 1079 1094
e 1079 1095
e 1079 1096
e 1079 1097
e 1079 1098
e 1079 1099
e 1079 1100
e 1079 1101
e 1079 1102
e 1079 1103
e 1079 1104
e 1079 1105
e 1079 1106
e 1079 1107
e 1079 1108
e 1079 1109
e 1079 1110
e 1079 1111
e 1079 1112
e 1079 1113
e 1079 1114
e 1079 1115
e 1079 1116
e 1079 1117
e 1079 1118
e 1079 1119
e 1079 1120
e 1079 1121
e 1079 1122
e 1079 1123
e 1079 1124
e 1079 1125
e 1079 1126
e 1079 1127
e 1079 1128
e 1079 1129
e 1079 1130
e 1079 1131
e 1079 1132
e 1079 1133
e 1079 1134
e 1079 1135
e 1079 1136
e 1079 1137
e 1079 1138
e 1079 1139
e 1079 1140
e 1079 1141
e 1079 1142
e 1079 1143
e 1079 1144
e 1079 1145
e 1079 1146
e 1079 1147
e 1079 1148
e 1079 1149
e 1079 1150
e 1079 1151
e 1079 1152
e 1079 1153
e 1079 1154
e 1079 1155
e 1079 1156
e 1079 1157
e 1079 1158
e 1159 1160
e 1159 1161
e 1159 1162
e 1159 1163
e 1159 1164
e 1159 1165
e 1159 1166
e 1159 1167
e 1159 1168
e 1159 1169
e 1159 1170
e 1159 1171
e 1159 1172
e 1159 1173
e 1159 1174
e 1159 1175
e 1159 1176
e 1159 1177
e 1159 1178
e 1159 1179
e 1159 1180
e 1159 1181
e 1159 1182
e 1159 1183
e 1159 1184
e 1159 1185
e 1159 1186
e 1159 1187
e 1159 1188
e 1159 1189
